c "random instance"
p edges 150 1109
e 1 63
e 1 65
e 1 76
e 1 85
e 1 95
e 1 103
e 1 138
e 1 150
e 2 7
e 2 12
e 2 21
e 2 40
e 2 73
e 2 80
e 2 81
e 2 103
e 2 120
e 2 122
e 2 123
e 2 148
e 3 21
e 3 38
e 3 44
e 3 47
e 3 60
e 3 81
e 3 92
e 3 112
e 3 116
e 3 121
e 3 124
e 3 130
e 3 140
e 4 10
e 4 11
e 4 17
e 4 23
e 4 32
e 4 45
e 4 53
e 4 55
e 4 56
e 4 87
e 4 97
e 4 98
e 4 112
e 4 126
e 4 130
e 4 145
e 4 148
e 5 9
e 5 15
e 5 34
e 5 39
e 5 70
e 5 88
e 5 105
e 5 139
e 5 147
e 6 7
e 6 8
e 6 17
e 6 31
e 6 34
e 6 39
e 6 40
e 6 60
e 6 67
e 6 76
e 6 80
e 6 101
e 6 104
e 6 107
e 6 109
e 6 141
e 6 148
e 7 8
e 7 16
e 7 58
e 7 60
e 7 61
e 7 71
e 7 79
e 7 84
e 7 94
e 7 97
e 7 99
e 7 103
e 7 107
e 7 125
e 7 132
e 7 139
e 7 142
e 7 143
e 8 13
e 8 26
e 8 30
e 8 32
e 8 46
e 8 51
e 8 56
e 8 60
e 8 64
e 8 77
e 8 79
e 8 102
e 8 146
e 9 11
e 9 12
e 9 14
e 9 39
e 9 52
e 9 58
e 9 61
e 9 80
e 9 83
e 9 90
e 9 92
e 9 93
e 9 99
e 9 103
e 9 105
e 9 123
e 9 125
e 9 128
e 9 131
e 10 12
e 10 38
e 10 57
e 10 58
e 10 67
e 10 79
e 10 89
e 10 92
e 10 93
e 10 100
e 10 121
e 10 124
e 10 133
e 10 135
e 11 13
e 11 14
e 11 16
e 11 19
e 11 40
e 11 45
e 11 64
e 11 109
e 11 114
e 11 118
e 11 131
e 11 138
e 11 142
e 11 145
e 12 21
e 12 36
e 12 44
e 12 69
e 12 77
e 12 79
e 12 102
e 12 109
e 12 113
e 12 116
e 12 139
e 13 29
e 13 31
e 13 35
e 13 68
e 13 82
e 13 86
e 13 96
e 13 97
e 13 114
e 13 132
e 13 133
e 13 137
e 13 141
e 13 142
e 14 24
e 14 44
e 14 72
e 14 75
e 14 79
e 14 82
e 14 91
e 14 92
e 14 94
e 14 118
e 14 135
e 14 140
e 14 148
e 15 34
e 15 38
e 15 45
e 15 63
e 15 64
e 15 66
e 15 67
e 15 74
e 15 95
e 15 100
e 15 107
e 15 117
e 15 134
e 15 138
e 15 146
e 16 17
e 16 24
e 16 25
e 16 26
e 16 50
e 16 56
e 16 58
e 16 74
e 16 83
e 16 90
e 16 91
e 16 93
e 16 109
e 16 112
e 16 113
e 16 117
e 16 120
e 16 122
e 16 135
e 16 147
e 17 20
e 17 43
e 17 46
e 17 54
e 17 63
e 17 66
e 17 79
e 17 81
e 17 101
e 17 104
e 17 108
e 17 113
e 17 124
e 17 128
e 17 135
e 18 20
e 18 21
e 18 47
e 18 50
e 18 63
e 18 83
e 18 91
e 18 101
e 18 104
e 18 116
e 18 121
e 18 127
e 18 132
e 18 141
e 18 148
e 19 34
e 19 52
e 19 53
e 19 72
e 19 82
e 19 97
e 19 112
e 19 117
e 19 143
e 20 25
e 20 57
e 20 64
e 20 81
e 20 85
e 20 103
e 20 105
e 20 120
e 20 136
e 20 143
e 21 31
e 21 35
e 21 44
e 21 47
e 21 49
e 21 58
e 21 84
e 21 90
e 21 92
e 21 105
e 21 109
e 21 115
e 21 131
e 21 136
e 21 144
e 21 149
e 22 28
e 22 37
e 22 38
e 22 46
e 22 48
e 22 54
e 22 59
e 22 60
e 22 64
e 22 71
e 22 81
e 22 83
e 22 100
e 22 112
e 22 116
e 22 146
e 23 39
e 23 56
e 23 57
e 23 67
e 23 72
e 23 74
e 23 80
e 23 90
e 23 103
e 23 104
e 23 114
e 23 116
e 23 119
e 23 120
e 23 130
e 23 137
e 23 139
e 24 42
e 24 52
e 24 55
e 24 67
e 24 68
e 24 71
e 24 73
e 24 92
e 24 96
e 24 98
e 24 116
e 24 147
e 25 29
e 25 39
e 25 43
e 25 45
e 25 56
e 25 58
e 25 60
e 25 63
e 25 82
e 25 86
e 25 87
e 25 96
e 25 104
e 25 123
e 25 126
e 25 130
e 25 141
e 26 27
e 26 28
e 26 36
e 26 38
e 26 73
e 26 80
e 26 89
e 26 115
e 26 117
e 27 29
e 27 44
e 27 55
e 27 56
e 27 60
e 27 94
e 27 95
e 27 107
e 27 122
e 27 146
e 28 30
e 28 59
e 28 74
e 28 76
e 28 91
e 28 96
e 28 106
e 28 110
e 28 122
e 28 124
e 28 134
e 28 137
e 28 142
e 28 146
e 28 147
e 28 148
e 29 41
e 29 49
e 29 58
e 29 62
e 29 68
e 29 71
e 29 86
e 29 88
e 29 89
e 29 98
e 29 100
e 29 106
e 29 113
e 29 118
e 29 122
e 29 124
e 29 138
e 29 144
e 30 38
e 30 42
e 30 43
e 30 58
e 30 60
e 30 65
e 30 67
e 30 78
e 30 88
e 30 107
e 30 111
e 30 113
e 30 136
e 30 148
e 31 35
e 31 54
e 31 78
e 31 91
e 31 93
e 31 100
e 31 124
e 31 130
e 31 142
e 31 149
e 32 46
e 32 53
e 32 54
e 32 58
e 32 62
e 32 98
e 32 101
e 32 113
e 32 146
e 32 149
e 33 37
e 33 56
e 33 69
e 33 93
e 33 101
e 33 114
e 33 133
e 33 147
e 34 42
e 34 46
e 34 57
e 34 59
e 34 65
e 34 73
e 34 80
e 34 82
e 34 84
e 34 87
e 34 93
e 34 95
e 34 97
e 34 100
e 34 115
e 34 116
e 34 117
e 34 134
e 35 44
e 35 49
e 35 54
e 35 57
e 35 67
e 35 68
e 35 71
e 35 82
e 35 87
e 35 94
e 35 130
e 35 136
e 35 138
e 35 150
e 36 42
e 36 43
e 36 60
e 36 67
e 36 70
e 36 78
e 36 81
e 36 84
e 36 100
e 36 116
e 36 125
e 36 129
e 36 131
e 36 134
e 36 145
e 36 150
e 37 55
e 37 64
e 37 86
e 37 93
e 37 94
e 37 104
e 37 116
e 37 118
e 37 119
e 37 128
e 38 49
e 38 64
e 38 77
e 38 82
e 38 98
e 38 99
e 38 105
e 38 107
e 38 139
e 38 141
e 38 150
e 39 40
e 39 41
e 39 58
e 39 71
e 39 77
e 39 95
e 39 101
e 39 121
e 39 125
e 39 143
e 39 146
e 39 149
e 40 61
e 40 62
e 40 80
e 40 96
e 40 108
e 40 113
e 40 125
e 40 133
e 40 141
e 40 143
e 40 149
e 41 81
e 41 83
e 41 85
e 41 92
e 41 110
e 41 120
e 41 121
e 41 124
e 41 127
e 41 130
e 41 133
e 42 48
e 42 67
e 42 68
e 42 74
e 42 96
e 42 103
e 42 107
e 42 120
e 42 123
e 42 141
e 42 143
e 43 45
e 43 87
e 43 89
e 43 142
e 43 147
e 44 48
e 44 72
e 44 75
e 44 98
e 44 117
e 44 136
e 44 138
e 44 142
e 45 77
e 45 84
e 45 105
e 45 129
e 45 148
e 45 150
e 46 79
e 46 84
e 46 94
e 46 115
e 46 120
e 46 127
e 46 143
e 46 144
e 47 91
e 47 107
e 47 118
e 47 125
e 47 126
e 47 143
e 48 65
e 48 72
e 48 73
e 48 82
e 48 87
e 48 95
e 48 111
e 48 114
e 48 118
e 48 126
e 48 135
e 48 136
e 48 145
e 49 53
e 49 62
e 49 65
e 49 70
e 49 76
e 49 78
e 49 119
e 49 126
e 50 61
e 50 63
e 50 65
e 50 71
e 50 87
e 50 103
e 50 130
e 50 133
e 51 64
e 51 75
e 51 77
e 51 82
e 51 96
e 51 99
e 51 104
e 51 106
e 51 112
e 51 138
e 52 63
e 52 64
e 52 71
e 52 76
e 52 85
e 52 92
e 52 144
e 52 145
e 53 54
e 53 57
e 53 59
e 53 66
e 53 67
e 53 104
e 53 120
e 53 131
e 53 136
e 53 137
e 53 141
e 53 143
e 54 65
e 54 73
e 54 78
e 54 105
e 54 121
e 54 146
e 55 58
e 55 59
e 55 75
e 55 96
e 55 97
e 55 107
e 55 114
e 55 116
e 55 147
e 56 80
e 56 83
e 56 86
e 56 99
e 56 113
e 56 142
e 56 144
e 57 72
e 57 88
e 57 98
e 57 108
e 57 112
e 57 115
e 57 121
e 57 136
e 57 141
e 58 65
e 58 66
e 58 83
e 58 99
e 58 111
e 58 127
e 58 132
e 58 141
e 59 69
e 59 70
e 59 74
e 59 87
e 59 115
e 59 118
e 59 127
e 60 62
e 60 81
e 60 82
e 60 97
e 60 116
e 60 124
e 60 146
e 61 85
e 61 86
e 61 89
e 61 91
e 61 113
e 61 114
e 61 123
e 61 124
e 61 126
e 61 136
e 61 139
e 61 140
e 61 144
e 62 70
e 62 80
e 62 81
e 62 100
e 62 113
e 62 116
e 62 130
e 62 136
e 62 141
e 63 64
e 63 69
e 63 71
e 63 80
e 63 83
e 63 85
e 63 87
e 63 88
e 63 118
e 63 120
e 63 136
e 63 139
e 63 140
e 64 74
e 64 83
e 64 91
e 64 108
e 64 119
e 64 124
e 64 126
e 64 132
e 64 137
e 64 148
e 65 71
e 65 81
e 65 84
e 65 85
e 65 89
e 65 115
e 65 119
e 65 124
e 65 125
e 65 127
e 65 140
e 66 68
e 66 88
e 66 91
e 66 103
e 66 113
e 66 123
e 66 134
e 66 147
e 67 70
e 67 72
e 67 73
e 67 86
e 67 105
e 67 112
e 67 113
e 67 131
e 67 137
e 68 78
e 68 79
e 68 81
e 68 113
e 68 125
e 68 134
e 68 135
e 69 72
e 69 108
e 69 110
e 69 126
e 69 136
e 69 143
e 70 75
e 70 80
e 70 83
e 70 84
e 70 94
e 70 111
e 70 114
e 70 116
e 70 123
e 70 125
e 70 136
e 71 76
e 71 80
e 71 112
e 71 115
e 71 126
e 71 137
e 71 145
e 71 150
e 72 144
e 73 77
e 73 83
e 73 84
e 73 87
e 73 96
e 73 104
e 73 112
e 73 115
e 73 116
e 73 148
e 74 77
e 74 89
e 74 103
e 74 118
e 74 137
e 74 139
e 74 141
e 74 143
e 75 89
e 75 90
e 75 101
e 75 103
e 75 121
e 75 126
e 75 140
e 76 81
e 76 88
e 76 95
e 76 101
e 76 102
e 76 107
e 76 115
e 76 120
e 76 125
e 76 133
e 77 94
e 77 100
e 77 114
e 77 131
e 77 138
e 77 143
e 78 101
e 78 118
e 78 135
e 78 137
e 79 81
e 79 85
e 79 90
e 79 94
e 79 101
e 79 105
e 79 114
e 79 117
e 80 92
e 80 94
e 80 108
e 80 117
e 80 123
e 80 133
e 80 148
e 81 82
e 81 102
e 81 106
e 81 110
e 81 118
e 81 124
e 81 129
e 81 130
e 81 138
e 81 145
e 82 83
e 82 87
e 82 101
e 82 116
e 82 117
e 82 118
e 82 137
e 82 146
e 83 95
e 83 98
e 83 100
e 83 103
e 84 89
e 84 91
e 84 92
e 84 102
e 84 108
e 84 115
e 84 124
e 84 127
e 84 128
e 84 138
e 84 139
e 84 149
e 85 100
e 85 110
e 85 111
e 85 131
e 85 135
e 85 138
e 86 92
e 86 117
e 86 150
e 87 99
e 87 120
e 87 136
e 87 144
e 87 145
e 87 148
e 87 149
e 88 108
e 88 113
e 88 118
e 88 127
e 88 128
e 88 133
e 88 149
e 89 107
e 89 120
e 89 137
e 90 97
e 90 98
e 90 100
e 90 105
e 90 108
e 90 134
e 91 97
e 91 102
e 91 103
e 91 113
e 91 138
e 91 150
e 92 99
e 92 105
e 92 125
e 92 129
e 92 130
e 92 131
e 92 146
e 93 97
e 93 99
e 93 109
e 93 131
e 93 136
e 93 140
e 93 143
e 94 103
e 94 107
e 94 112
e 94 114
e 94 123
e 94 125
e 94 126
e 94 143
e 94 147
e 94 150
e 95 123
e 95 130
e 95 136
e 95 142
e 96 115
e 96 118
e 96 127
e 96 147
e 97 120
e 97 124
e 97 125
e 97 132
e 97 135
e 97 136
e 98 110
e 98 115
e 98 126
e 98 127
e 98 135
e 98 136
e 98 145
e 99 104
e 99 108
e 99 133
e 100 102
e 100 113
e 100 148
e 101 102
e 101 111
e 101 130
e 101 132
e 101 145
e 101 149
e 102 115
e 102 129
e 102 133
e 102 140
e 103 132
e 103 134
e 104 119
e 104 133
e 104 138
e 104 148
e 105 115
e 105 121
e 105 134
e 105 135
e 106 108
e 106 117
e 106 128
e 106 136
e 107 110
e 107 117
e 107 120
e 107 121
e 107 126
e 108 127
e 108 130
e 108 139
e 108 146
e 108 149
e 109 110
e 109 118
e 109 125
e 110 133
e 110 137
e 110 138
e 111 122
e 111 130
e 111 139
e 112 114
e 112 118
e 112 126
e 112 129
e 112 137
e 112 138
e 112 139
e 112 144
e 113 130
e 113 146
e 113 147
e 114 119
e 114 122
e 114 129
e 114 141
e 114 144
e 115 119
e 115 123
e 115 129
e 115 131
e 115 137
e 115 147
e 116 120
e 116 136
e 117 128
e 117 132
e 117 140
e 117 142
e 117 143
e 117 147
e 117 150
e 118 119
e 118 125
e 118 128
e 119 143
e 119 146
e 120 121
e 120 132
e 121 122
e 121 135
e 121 147
e 123 128
e 123 146
e 124 128
e 124 137
e 124 141
e 124 146
e 125 133
e 125 150
e 126 131
e 127 134
e 128 135
e 129 144
e 129 149
e 130 133
e 130 140
e 132 134
e 132 139
e 135 137
e 135 138
e 136 138
e 137 147
e 138 149
e 139 142
e 139 144
e 141 146
e 144 150
e 148 149
e 149 150
